72
5 125 182
138 66 119 199
175 171 22 144
112 20 186 195
19 100
64 123 135 198
137 21 155
95 33
110 4
29 124 163
101 26 189
142 11 157
140 145 183 46
159
132 12 162
61 179 87
7 117
166 122 25
37 88
10 181 120
38 91 197
99 30 190
96 40 188
107 36 184 193
34 114 169
58 75
78 55 200
31 173 111
98 27
115 24 180
105 45 165
152 116 47
94 32
60 74
39 92 191
2 130 177
103 68 158
23 149 141
82 65
84 192 43
156 9 143
136 42 131
167 128 14
109 6
76 54
79 51
129 28 160
106 8
77 53
93 62 172
134 161 16
108 164 44
80 59
90 35
148 48 121
57 176 97
174 15 196 126
70 168 89
63 72
67 104 154
83 41
146 50 127 194
18 147 150
69 71
151 3 153
1 139 170
85 52 187
185 86 56
81 49
73 113 133
178 118 13
102 17
